57
120
96	1
94	1
92	3
90	1
89	1
86	1
85	3
84	1
83	4
82	1
81	1
80	1
79	1
78	1
76	1
75	1
74	1
73	2
72	2
70	1
69	4
68	1
67	1
66	2
65	1
64	1
62	2
59	1
55	1
54	1
53	1
51	1
50	3
49	2
48	2
47	2
46	2
45	2
44	1
42	3
40	1
39	2
36	2
34	2
33	1
32	1
30	2
27	1
26	5
25	5
24	2
22	2
21	2
20	1
17	4
14	2
13	2
